(declare-fun a (Bool Bool Bool Bool Bool Bool Bool Bool Bool Bool Bool Bool Int Int Int Int Int Int Bool Int Int Int Int Int Int Bool Int Int Int Int Int Int Bool) Bool)
(declare-fun b (Int Int Int Bool Int Bool) Bool)
(declare-fun c (Bool Bool Bool Bool Bool Bool Bool Bool Bool Bool Bool Bool Bool) Bool)
(declare-fun aa (Bool Bool Bool Bool Bool Bool Bool Bool Bool Bool Bool Bool Int Bool Int Bool Int Int Int Int Int Int Bool Bool Bool Int Bool Int Int Int Int Int Int Bool Bool Bool) Bool)
(assert (forall ((dab Bool) (de Bool) (df Bool) (dac Bool) (dad Bool) (dg Bool) (dh Bool) (di Bool) (dae Bool) (dj Bool) (dk Bool) (dl Bool) (dm Bool) (dafno Bool) (dafnc Bool) (dafnpqah Bool) (dafnpqr Bool) (dai Int) (daj Bool) (dafns Bool) (dafnpqak Bool) (dtalm Int) (dtalu Int) (dtalv Int) (dtalw Int) (dtalam Int) (dtalx Int) (dtaly Int) (dtalz Int) (dtalan Int) (dtalao Int) (dtalap Int) (dtalaq Int) (dtalarqah Bool) (dtalarqr Bool) (das Int) (dshared Int) (dat Int) (dau Int) (dav Int) (daw Bool) (dtalax Int) (dtalay Int) (dtalaz Int) (dtalba Int) (dtalbb Int) (dtalbc Int) (dtalarqak Bool) (dbdbebf Int) (dbdbebg Int) (dbdbebhqah Bool) (dbdbebhqr Bool) (dbi Int) (dbdbebj Int) (dbdbebhqak Bool) (dbk Bool)) (let ((bl (and (c dab de df dac dad dg dh di dae dj dk dl dm) (= dafno dafnc dafnpqah dafnpqr (and dm) daj dafno dafnpqah dafns dafnpqak) (= dtalm dtalu) (= dtalv dtalw) (= dtalam dtalx) (= dtaly dtalz) (= dtalan dtalao) (= dtalap dtalaq) (= dtalarqah dtalarqr) (a dab de df dac dad dg dh di dae dj dk dl dai das dshared dat dau dav daw dtalm dtalv dtalam dtaly dtalan dtalap dtalarqah dtalax dtalay dtalaz dtalba dtalbb dtalbc dtalarqak) (= dbdbebf dbdbebg) (= dbdbebhqah dbdbebhqr) (b dai dbi dbdbebf dbdbebhqah dbdbebj dbdbebhqak) (= dbk (= daj (<= dshared dbi)))))) (=> bl (aa dab de df dac dad dg dh di dae dj dk dl dai dbk dbdbebg dbdbebhqr dtalu dtalw dtalx dtalz dtalao dtalaq dtalarqr dafnc dafnpqr dbdbebj dbdbebhqak dtalax dtalay dtalaz dtalba dtalbb dtalbc dtalarqak dafns dafnpqak)))))
(check-sat)
